39827 39539 
40257 38958 
39909 39402 
40131 39339 
39742 39574 
40159 39227 
38904 40196 
38968 40180 
38897 40238 
37825 40769 
37171 40911 
37590 40781 
38006 40705 
38425 40575 
38844 40311 
38487 40543 
39485 39992 
39250 40038 
39652 39820 
39680 39708 
39062 40094 
38652 40344 
